NAME : instances/clustered-mixed-tsp/instance-61.tsp
COMMENT : No Comment
TYPE : TSP
DIMENSION: 40
EDGE_WEIGHT_TYPE : EUC_2D
NODE_COORD_SECTION
1 20 492 
2 685 707 
3 1015 727 
4 405 488 
5 208 751 
6 525 297 
7 86 426 
8 142 861 
9 990 589 
10 109 960 
11 481 341 
12 261 330 
13 803 611 
14 572 817 
15 552 397 
16 770 853 
17 207 447 
18 273 469 
19 825 809 
20 218 370 
21 537 631 
22 839 696 
23 9 316 
24 376 100 
25 660 861 
26 31 492 
27 630 740 
28 -34 927 
29 250 209 
30 409 111 
31 649 217 
32 715 382 
33 707 685 
34 462 294 
35 164 762 
36 141 316 
37 874 277 
38 -68 239 
39 1100 688 
40 880 633 
EOF
